set CLIENTS := 1 2 4 5 6 9 11;
param N := 7;
param c:     1 2 4 5 6 9 11 :=
          1  0 5 5 7 1 1  1
          2  2 6 6 8 1 7  3
          4  8 4 0 9 5 4  1
          5  5 8 8 0 1 4  1
          6  2 9 9 8 1 9  3
          9  1 1 1 6 1 0  3
          11 1 1 1 1 8 1  0 ;

param t :=
  1   10
  2   10
  5   10
  4   1
  6   10
  9   10
  11  10
;
